(declare-sort Loc 0)
(declare-const l0 Loc)
(declare-const l1 Loc)
(declare-const l2 Loc)
(declare-const l3 Loc)
(declare-const l4 Loc)
(declare-const l5 Loc)
(declare-const l6 Loc)
(declare-const l7 Loc)
(declare-const l8 Loc)
(declare-const l9 Loc)
(declare-const l10 Loc)
(declare-const l11 Loc)
(declare-const l12 Loc)
(declare-const l13 Loc)
(declare-const l14 Loc)
(declare-const l15 Loc)
(declare-const l16 Loc)
(declare-const l17 Loc)
(declare-const l18 Loc)
(declare-const l19 Loc)
(declare-const l20 Loc)
(declare-const l21 Loc)
(declare-const l22 Loc)
(declare-const l23 Loc)
(declare-const l24 Loc)
(declare-const l25 Loc)
(declare-const l26 Loc)
(assert (distinct l0 l1 l2 l3 l4 l5 l6 l7 l8 l9 l10 l11 l12 l13 l14 l15 l16 l17 l18 l19 l20 l21 l22 l23 l24 l25 l26))

(define-fun cfg_init ( (pc Loc) (src Loc) (rel Bool) ) Bool
  (and (= pc src) rel))

(define-fun cfg_trans2 ( (pc Loc) (src Loc)
                         (pc1 Loc) (dst Loc)
                         (rel Bool) ) Bool
  (and (= pc src) (= pc1 dst) rel))

(define-fun cfg_trans3 ( (pc Loc) (exit Loc)
                         (pc1 Loc) (call Loc)
                         (pc2 Loc) (return Loc)
                         (rel Bool) ) Bool
  (and (= pc exit) (= pc1 call) (= pc2 return) rel))

(define-fun init_main ( (pc^0 Loc) (__const_10^0 Int) (__const_20^0 Int) (a8^0 Int) (flag10^0 Int) (flag211^0 Int) (i3^0 Int) (ir4^0 Int) (j5^0 Int) (k1^0 Int) (l6^0 Int) (mid7^0 Int) (n2^0 Int) (temp9^0 Int) ) Bool
  (cfg_init pc^0 l26 true))

(define-fun next_main (
                 (pc^0 Loc) (__const_10^0 Int) (__const_20^0 Int) (a8^0 Int) (flag10^0 Int) (flag211^0 Int) (i3^0 Int) (ir4^0 Int) (j5^0 Int) (k1^0 Int) (l6^0 Int) (mid7^0 Int) (n2^0 Int) (temp9^0 Int)
                 (pc^post Loc) (__const_10^post Int) (__const_20^post Int) (a8^post Int) (flag10^post Int) (flag211^post Int) (i3^post Int) (ir4^post Int) (j5^post Int) (k1^post Int) (l6^post Int) (mid7^post Int) (n2^post Int) (temp9^post Int)
             ) Bool
  (or
    (cfg_trans2 pc^0 l0 pc^post l1 (and (and (and (and (and (and (and (and (and (and (and (and (and (<= (+ 1 k1^0) (+ 0 j5^0)) (= __const_10^0 __const_10^post)) (= __const_20^0 __const_20^post)) (= a8^0 a8^post)) (= flag10^0 flag10^post)) (= flag211^0 flag211^post)) (= i3^0 i3^post)) (= ir4^0 ir4^post)) (= j5^0 j5^post)) (= k1^0 k1^post)) (= l6^0 l6^post)) (= mid7^0 mid7^post)) (= n2^0 n2^post)) (= temp9^0 temp9^post)))
    (cfg_trans2 pc^0 l0 pc^post l1 (and (and (and (and (and (and (and (and (and (and (and (and (and (<= (+ 0 j5^0) (+ 0 k1^0)) (= l6^post (+ 0 i3^0))) (= __const_10^0 __const_10^post)) (= __const_20^0 __const_20^post)) (= a8^0 a8^post)) (= flag10^0 flag10^post)) (= flag211^0 flag211^post)) (= i3^0 i3^post)) (= ir4^0 ir4^post)) (= j5^0 j5^post)) (= k1^0 k1^post)) (= mid7^0 mid7^post)) (= n2^0 n2^post)) (= temp9^0 temp9^post)))
    (cfg_trans2 pc^0 l2 pc^post l0 (and (and (and (and (and (and (and (and (and (and (and (and (and (<= (+ 1 j5^0) (+ 0 k1^0)) (= __const_10^0 __const_10^post)) (= __const_20^0 __const_20^post)) (= a8^0 a8^post)) (= flag10^0 flag10^post)) (= flag211^0 flag211^post)) (= i3^0 i3^post)) (= ir4^0 ir4^post)) (= j5^0 j5^post)) (= k1^0 k1^post)) (= l6^0 l6^post)) (= mid7^0 mid7^post)) (= n2^0 n2^post)) (= temp9^0 temp9^post)))
    (cfg_trans2 pc^0 l2 pc^post l0 (and (and (and (and (and (and (and (and (and (and (and (and (and (<= (+ 0 k1^0) (+ 0 j5^0)) (= ir4^post (+ -1 j5^0))) (= __const_10^0 __const_10^post)) (= __const_20^0 __const_20^post)) (= a8^0 a8^post)) (= flag10^0 flag10^post)) (= flag211^0 flag211^post)) (= i3^0 i3^post)) (= j5^0 j5^post)) (= k1^0 k1^post)) (= l6^0 l6^post)) (= mid7^0 mid7^post)) (= n2^0 n2^post)) (= temp9^0 temp9^post)))
    (cfg_trans2 pc^0 l3 pc^post l4 (and (and (and (and (and (and (and (and (and (and (and (and (= __const_10^0 __const_10^post) (= __const_20^0 __const_20^post)) (= a8^0 a8^post)) (= flag10^0 flag10^post)) (= flag211^0 flag211^post)) (= i3^0 i3^post)) (= ir4^0 ir4^post)) (= j5^0 j5^post)) (= k1^0 k1^post)) (= l6^0 l6^post)) (= mid7^0 mid7^post)) (= n2^0 n2^post)) (= temp9^0 temp9^post)))
    (cfg_trans2 pc^0 l5 pc^post l3 (and (and (and (and (and (and (and (and (and (and (and (and (and (<= 1 (+ 0 flag211^0)) (= __const_10^0 __const_10^post)) (= __const_20^0 __const_20^post)) (= a8^0 a8^post)) (= flag10^0 flag10^post)) (= flag211^0 flag211^post)) (= i3^0 i3^post)) (= ir4^0 ir4^post)) (= j5^0 j5^post)) (= k1^0 k1^post)) (= l6^0 l6^post)) (= mid7^0 mid7^post)) (= n2^0 n2^post)) (= temp9^0 temp9^post)))
    (cfg_trans2 pc^0 l5 pc^post l3 (and (and (and (and (and (and (and (and (and (and (and (and (and (<= (+ 1 flag211^0) 0) (= __const_10^0 __const_10^post)) (= __const_20^0 __const_20^post)) (= a8^0 a8^post)) (= flag10^0 flag10^post)) (= flag211^0 flag211^post)) (= i3^0 i3^post)) (= ir4^0 ir4^post)) (= j5^0 j5^post)) (= k1^0 k1^post)) (= l6^0 l6^post)) (= mid7^0 mid7^post)) (= n2^0 n2^post)) (= temp9^0 temp9^post)))
    (cfg_trans2 pc^0 l5 pc^post l3 (and (and (and (and (and (and (and (and (and (and (and (and (and (and (<= (+ 0 flag211^0) 0) (<= 0 (+ 0 flag211^0))) (= temp9^post temp9^post)) (= __const_10^0 __const_10^post)) (= __const_20^0 __const_20^post)) (= a8^0 a8^post)) (= flag10^0 flag10^post)) (= flag211^0 flag211^post)) (= i3^0 i3^post)) (= ir4^0 ir4^post)) (= j5^0 j5^post)) (= k1^0 k1^post)) (= l6^0 l6^post)) (= mid7^0 mid7^post)) (= n2^0 n2^post)))
    (cfg_trans2 pc^0 l6 pc^post l5 (and (and (and (and (and (and (and (and (and (and (and (and (and (<= (+ 0 i3^0) (+ 0 j5^0)) (= __const_10^0 __const_10^post)) (= __const_20^0 __const_20^post)) (= a8^0 a8^post)) (= flag10^0 flag10^post)) (= flag211^0 flag211^post)) (= i3^0 i3^post)) (= ir4^0 ir4^post)) (= j5^0 j5^post)) (= k1^0 k1^post)) (= l6^0 l6^post)) (= mid7^0 mid7^post)) (= n2^0 n2^post)) (= temp9^0 temp9^post)))
    (cfg_trans2 pc^0 l6 pc^post l5 (and (and (and (and (and (and (and (and (and (and (and (and (and (<= (+ 1 j5^0) (+ 0 i3^0)) (= flag211^post 1)) (= __const_10^0 __const_10^post)) (= __const_20^0 __const_20^post)) (= a8^0 a8^post)) (= flag10^0 flag10^post)) (= i3^0 i3^post)) (= ir4^0 ir4^post)) (= j5^0 j5^post)) (= k1^0 k1^post)) (= l6^0 l6^post)) (= mid7^0 mid7^post)) (= n2^0 n2^post)) (= temp9^0 temp9^post)))
    (cfg_trans2 pc^0 l1 pc^post l7 (and (and (and (and (and (and (and (and (and (and (and (and (= __const_10^0 __const_10^post) (= __const_20^0 __const_20^post)) (= a8^0 a8^post)) (= flag10^0 flag10^post)) (= flag211^0 flag211^post)) (= i3^0 i3^post)) (= ir4^0 ir4^post)) (= j5^0 j5^post)) (= k1^0 k1^post)) (= l6^0 l6^post)) (= mid7^0 mid7^post)) (= n2^0 n2^post)) (= temp9^0 temp9^post)))
    (cfg_trans2 pc^0 l8 pc^post l9 (and (and (and (and (and (and (and (and (and (and (and (and (= j5^post (+ -1 j5^0)) (= __const_10^0 __const_10^post)) (= __const_20^0 __const_20^post)) (= a8^0 a8^post)) (= flag10^0 flag10^post)) (= flag211^0 flag211^post)) (= i3^0 i3^post)) (= ir4^0 ir4^post)) (= k1^0 k1^post)) (= l6^0 l6^post)) (= mid7^0 mid7^post)) (= n2^0 n2^post)) (= temp9^0 temp9^post)))
    (cfg_trans2 pc^0 l8 pc^post l6 (and (and (and (and (and (and (and (and (and (and (and (and (= __const_10^0 __const_10^post) (= __const_20^0 __const_20^post)) (= a8^0 a8^post)) (= flag10^0 flag10^post)) (= flag211^0 flag211^post)) (= i3^0 i3^post)) (= ir4^0 ir4^post)) (= j5^0 j5^post)) (= k1^0 k1^post)) (= l6^0 l6^post)) (= mid7^0 mid7^post)) (= n2^0 n2^post)) (= temp9^0 temp9^post)))
    (cfg_trans2 pc^0 l10 pc^post l11 (and (and (and (and (and (and (and (and (and (and (and (and (= i3^post (+ 1 i3^0)) (= __const_10^0 __const_10^post)) (= __const_20^0 __const_20^post)) (= a8^0 a8^post)) (= flag10^0 flag10^post)) (= flag211^0 flag211^post)) (= ir4^0 ir4^post)) (= j5^0 j5^post)) (= k1^0 k1^post)) (= l6^0 l6^post)) (= mid7^0 mid7^post)) (= n2^0 n2^post)) (= temp9^0 temp9^post)))
    (cfg_trans2 pc^0 l10 pc^post l9 (and (and (and (and (and (and (and (and (and (and (and (and (= j5^post (+ -1 j5^0)) (= __const_10^0 __const_10^post)) (= __const_20^0 __const_20^post)) (= a8^0 a8^post)) (= flag10^0 flag10^post)) (= flag211^0 flag211^post)) (= i3^0 i3^post)) (= ir4^0 ir4^post)) (= k1^0 k1^post)) (= l6^0 l6^post)) (= mid7^0 mid7^post)) (= n2^0 n2^post)) (= temp9^0 temp9^post)))
    (cfg_trans2 pc^0 l12 pc^post l2 (and (and (and (and (and (and (and (and (and (and (and (and (= __const_10^0 __const_10^post) (= __const_20^0 __const_20^post)) (= a8^0 a8^post)) (= flag10^0 flag10^post)) (= flag211^0 flag211^post)) (= i3^0 i3^post)) (= ir4^0 ir4^post)) (= j5^0 j5^post)) (= k1^0 k1^post)) (= l6^0 l6^post)) (= mid7^0 mid7^post)) (= n2^0 n2^post)) (= temp9^0 temp9^post)))
    (cfg_trans2 pc^0 l13 pc^post l12 (and (and (and (and (and (and (and (and (and (and (and (and (and (<= 1 (+ 0 flag211^0)) (= __const_10^0 __const_10^post)) (= __const_20^0 __const_20^post)) (= a8^0 a8^post)) (= flag10^0 flag10^post)) (= flag211^0 flag211^post)) (= i3^0 i3^post)) (= ir4^0 ir4^post)) (= j5^0 j5^post)) (= k1^0 k1^post)) (= l6^0 l6^post)) (= mid7^0 mid7^post)) (= n2^0 n2^post)) (= temp9^0 temp9^post)))
    (cfg_trans2 pc^0 l13 pc^post l12 (and (and (and (and (and (and (and (and (and (and (and (and (and (<= (+ 1 flag211^0) 0) (= __const_10^0 __const_10^post)) (= __const_20^0 __const_20^post)) (= a8^0 a8^post)) (= flag10^0 flag10^post)) (= flag211^0 flag211^post)) (= i3^0 i3^post)) (= ir4^0 ir4^post)) (= j5^0 j5^post)) (= k1^0 k1^post)) (= l6^0 l6^post)) (= mid7^0 mid7^post)) (= n2^0 n2^post)) (= temp9^0 temp9^post)))
    (cfg_trans2 pc^0 l13 pc^post l11 (and (and (and (and (and (and (and (and (and (and (and (and (and (and (<= (+ 0 flag211^0) 0) (<= 0 (+ 0 flag211^0))) (= i3^post (+ 1 i3^0))) (= __const_10^0 __const_10^post)) (= __const_20^0 __const_20^post)) (= a8^0 a8^post)) (= flag10^0 flag10^post)) (= flag211^0 flag211^post)) (= ir4^0 ir4^post)) (= j5^0 j5^post)) (= k1^0 k1^post)) (= l6^0 l6^post)) (= mid7^0 mid7^post)) (= n2^0 n2^post)) (= temp9^0 temp9^post)))
    (cfg_trans2 pc^0 l4 pc^post l13 (and (and (and (and (and (and (and (and (and (and (and (and (= __const_10^0 __const_10^post) (= __const_20^0 __const_20^post)) (= a8^0 a8^post)) (= flag10^0 flag10^post)) (= flag211^0 flag211^post)) (= i3^0 i3^post)) (= ir4^0 ir4^post)) (= j5^0 j5^post)) (= k1^0 k1^post)) (= l6^0 l6^post)) (= mid7^0 mid7^post)) (= n2^0 n2^post)) (= temp9^0 temp9^post)))
    (cfg_trans2 pc^0 l14 pc^post l4 (and (and (and (and (and (and (and (and (and (and (and (and (= i3^post (+ 1 l6^0)) (= j5^post (+ 0 ir4^0))) (= a8^post a8^post)) (= __const_10^0 __const_10^post)) (= __const_20^0 __const_20^post)) (= flag10^0 flag10^post)) (= flag211^0 flag211^post)) (= ir4^0 ir4^post)) (= k1^0 k1^post)) (= l6^0 l6^post)) (= mid7^0 mid7^post)) (= n2^0 n2^post)) (= temp9^0 temp9^post)))
    (cfg_trans2 pc^0 l15 pc^post l14 (and (and (and (and (and (and (and (and (and (and (and (and (= temp9^post temp9^post) (= __const_10^0 __const_10^post)) (= __const_20^0 __const_20^post)) (= a8^0 a8^post)) (= flag10^0 flag10^post)) (= flag211^0 flag211^post)) (= i3^0 i3^post)) (= ir4^0 ir4^post)) (= j5^0 j5^post)) (= k1^0 k1^post)) (= l6^0 l6^post)) (= mid7^0 mid7^post)) (= n2^0 n2^post)))
    (cfg_trans2 pc^0 l15 pc^post l14 (and (and (and (and (and (and (and (and (and (and (and (and (= __const_10^0 __const_10^post) (= __const_20^0 __const_20^post)) (= a8^0 a8^post)) (= flag10^0 flag10^post)) (= flag211^0 flag211^post)) (= i3^0 i3^post)) (= ir4^0 ir4^post)) (= j5^0 j5^post)) (= k1^0 k1^post)) (= l6^0 l6^post)) (= mid7^0 mid7^post)) (= n2^0 n2^post)) (= temp9^0 temp9^post)))
    (cfg_trans2 pc^0 l11 pc^post l10 (and (and (and (and (and (and (and (and (and (and (and (and (= __const_10^0 __const_10^post) (= __const_20^0 __const_20^post)) (= a8^0 a8^post)) (= flag10^0 flag10^post)) (= flag211^0 flag211^post)) (= i3^0 i3^post)) (= ir4^0 ir4^post)) (= j5^0 j5^post)) (= k1^0 k1^post)) (= l6^0 l6^post)) (= mid7^0 mid7^post)) (= n2^0 n2^post)) (= temp9^0 temp9^post)))
    (cfg_trans2 pc^0 l16 pc^post l15 (and (and (and (and (and (and (and (and (and (and (and (and (= temp9^post temp9^post) (= __const_10^0 __const_10^post)) (= __const_20^0 __const_20^post)) (= a8^0 a8^post)) (= flag10^0 flag10^post)) (= flag211^0 flag211^post)) (= i3^0 i3^post)) (= ir4^0 ir4^post)) (= j5^0 j5^post)) (= k1^0 k1^post)) (= l6^0 l6^post)) (= mid7^0 mid7^post)) (= n2^0 n2^post)))
    (cfg_trans2 pc^0 l16 pc^post l15 (and (and (and (and (and (and (and (and (and (and (and (and (= __const_10^0 __const_10^post) (= __const_20^0 __const_20^post)) (= a8^0 a8^post)) (= flag10^0 flag10^post)) (= flag211^0 flag211^post)) (= i3^0 i3^post)) (= ir4^0 ir4^post)) (= j5^0 j5^post)) (= k1^0 k1^post)) (= l6^0 l6^post)) (= mid7^0 mid7^post)) (= n2^0 n2^post)) (= temp9^0 temp9^post)))
    (cfg_trans2 pc^0 l17 pc^post l16 (and (and (and (and (and (and (and (and (and (and (and (and (= temp9^post temp9^post) (= __const_10^0 __const_10^post)) (= __const_20^0 __const_20^post)) (= a8^0 a8^post)) (= flag10^0 flag10^post)) (= flag211^0 flag211^post)) (= i3^0 i3^post)) (= ir4^0 ir4^post)) (= j5^0 j5^post)) (= k1^0 k1^post)) (= l6^0 l6^post)) (= mid7^0 mid7^post)) (= n2^0 n2^post)))
    (cfg_trans2 pc^0 l17 pc^post l16 (and (and (and (and (and (and (and (and (and (and (and (and (= __const_10^0 __const_10^post) (= __const_20^0 __const_20^post)) (= a8^0 a8^post)) (= flag10^0 flag10^post)) (= flag211^0 flag211^post)) (= i3^0 i3^post)) (= ir4^0 ir4^post)) (= j5^0 j5^post)) (= k1^0 k1^post)) (= l6^0 l6^post)) (= mid7^0 mid7^post)) (= n2^0 n2^post)) (= temp9^0 temp9^post)))
    (cfg_trans2 pc^0 l18 pc^post l1 (and (and (and (and (and (and (and (and (and (and (and (and (and (<= 1 (+ 0 flag10^0)) (= __const_10^0 __const_10^post)) (= __const_20^0 __const_20^post)) (= a8^0 a8^post)) (= flag10^0 flag10^post)) (= flag211^0 flag211^post)) (= i3^0 i3^post)) (= ir4^0 ir4^post)) (= j5^0 j5^post)) (= k1^0 k1^post)) (= l6^0 l6^post)) (= mid7^0 mid7^post)) (= n2^0 n2^post)) (= temp9^0 temp9^post)))
    (cfg_trans2 pc^0 l18 pc^post l1 (and (and (and (and (and (and (and (and (and (and (and (and (and (<= (+ 1 flag10^0) 0) (= __const_10^0 __const_10^post)) (= __const_20^0 __const_20^post)) (= a8^0 a8^post)) (= flag10^0 flag10^post)) (= flag211^0 flag211^post)) (= i3^0 i3^post)) (= ir4^0 ir4^post)) (= j5^0 j5^post)) (= k1^0 k1^post)) (= l6^0 l6^post)) (= mid7^0 mid7^post)) (= n2^0 n2^post)) (= temp9^0 temp9^post)))
    (cfg_trans2 pc^0 l18 pc^post l17 (and (and (and (and (and (and (and (and (and (and (and (and (and (and (<= (+ 0 flag10^0) 0) (<= 0 (+ 0 flag10^0))) (= mid7^post mid7^post)) (= temp9^post temp9^post)) (= __const_10^0 __const_10^post)) (= __const_20^0 __const_20^post)) (= a8^0 a8^post)) (= flag10^0 flag10^post)) (= flag211^0 flag211^post)) (= i3^0 i3^post)) (= ir4^0 ir4^post)) (= j5^0 j5^post)) (= k1^0 k1^post)) (= l6^0 l6^post)) (= n2^0 n2^post)))
    (cfg_trans2 pc^0 l9 pc^post l8 (and (and (and (and (and (and (and (and (and (and (and (and (= __const_10^0 __const_10^post) (= __const_20^0 __const_20^post)) (= a8^0 a8^post)) (= flag10^0 flag10^post)) (= flag211^0 flag211^post)) (= i3^0 i3^post)) (= ir4^0 ir4^post)) (= j5^0 j5^post)) (= k1^0 k1^post)) (= l6^0 l6^post)) (= mid7^0 mid7^post)) (= n2^0 n2^post)) (= temp9^0 temp9^post)))
    (cfg_trans2 pc^0 l19 pc^post l1 (and (and (and (and (and (and (and (and (and (and (and (and (= flag10^post 1) (= __const_10^0 __const_10^post)) (= __const_20^0 __const_20^post)) (= a8^0 a8^post)) (= flag211^0 flag211^post)) (= i3^0 i3^post)) (= ir4^0 ir4^post)) (= j5^0 j5^post)) (= k1^0 k1^post)) (= l6^0 l6^post)) (= mid7^0 mid7^post)) (= n2^0 n2^post)) (= temp9^0 temp9^post)))
    (cfg_trans2 pc^0 l20 pc^post l19 (and (and (and (and (and (and (and (and (and (and (and (and (= temp9^post temp9^post) (= __const_10^0 __const_10^post)) (= __const_20^0 __const_20^post)) (= a8^0 a8^post)) (= flag10^0 flag10^post)) (= flag211^0 flag211^post)) (= i3^0 i3^post)) (= ir4^0 ir4^post)) (= j5^0 j5^post)) (= k1^0 k1^post)) (= l6^0 l6^post)) (= mid7^0 mid7^post)) (= n2^0 n2^post)))
    (cfg_trans2 pc^0 l20 pc^post l19 (and (and (and (and (and (and (and (and (and (and (and (and (= __const_10^0 __const_10^post) (= __const_20^0 __const_20^post)) (= a8^0 a8^post)) (= flag10^0 flag10^post)) (= flag211^0 flag211^post)) (= i3^0 i3^post)) (= ir4^0 ir4^post)) (= j5^0 j5^post)) (= k1^0 k1^post)) (= l6^0 l6^post)) (= mid7^0 mid7^post)) (= n2^0 n2^post)) (= temp9^0 temp9^post)))
    (cfg_trans2 pc^0 l21 pc^post l19 (and (and (and (and (and (and (and (and (and (and (and (and (and (<= (+ 2 l6^0) (+ 0 ir4^0)) (= __const_10^0 __const_10^post)) (= __const_20^0 __const_20^post)) (= a8^0 a8^post)) (= flag10^0 flag10^post)) (= flag211^0 flag211^post)) (= i3^0 i3^post)) (= ir4^0 ir4^post)) (= j5^0 j5^post)) (= k1^0 k1^post)) (= l6^0 l6^post)) (= mid7^0 mid7^post)) (= n2^0 n2^post)) (= temp9^0 temp9^post)))
    (cfg_trans2 pc^0 l21 pc^post l19 (and (and (and (and (and (and (and (and (and (and (and (and (and (<= (+ 1 ir4^0) (+ 1 l6^0)) (= __const_10^0 __const_10^post)) (= __const_20^0 __const_20^post)) (= a8^0 a8^post)) (= flag10^0 flag10^post)) (= flag211^0 flag211^post)) (= i3^0 i3^post)) (= ir4^0 ir4^post)) (= j5^0 j5^post)) (= k1^0 k1^post)) (= l6^0 l6^post)) (= mid7^0 mid7^post)) (= n2^0 n2^post)) (= temp9^0 temp9^post)))
    (cfg_trans2 pc^0 l21 pc^post l20 (and (and (and (and (and (and (and (and (and (and (and (and (and (and (<= (+ 0 ir4^0) (+ 1 l6^0)) (<= (+ 1 l6^0) (+ 0 ir4^0))) (= __const_10^0 __const_10^post)) (= __const_20^0 __const_20^post)) (= a8^0 a8^post)) (= flag10^0 flag10^post)) (= flag211^0 flag211^post)) (= i3^0 i3^post)) (= ir4^0 ir4^post)) (= j5^0 j5^post)) (= k1^0 k1^post)) (= l6^0 l6^post)) (= mid7^0 mid7^post)) (= n2^0 n2^post)) (= temp9^0 temp9^post)))
    (cfg_trans2 pc^0 l22 pc^post l23 (and (and (and (and (and (and (and (and (and (and (and (and (= __const_10^0 __const_10^post) (= __const_20^0 __const_20^post)) (= a8^0 a8^post)) (= flag10^0 flag10^post)) (= flag211^0 flag211^post)) (= i3^0 i3^post)) (= ir4^0 ir4^post)) (= j5^0 j5^post)) (= k1^0 k1^post)) (= l6^0 l6^post)) (= mid7^0 mid7^post)) (= n2^0 n2^post)) (= temp9^0 temp9^post)))
    (cfg_trans2 pc^0 l24 pc^post l18 (and (and (and (and (and (and (and (and (and (and (and (and (and (<= (+ 2 l6^0) (+ 0 ir4^0)) (= __const_10^0 __const_10^post)) (= __const_20^0 __const_20^post)) (= a8^0 a8^post)) (= flag10^0 flag10^post)) (= flag211^0 flag211^post)) (= i3^0 i3^post)) (= ir4^0 ir4^post)) (= j5^0 j5^post)) (= k1^0 k1^post)) (= l6^0 l6^post)) (= mid7^0 mid7^post)) (= n2^0 n2^post)) (= temp9^0 temp9^post)))
    (cfg_trans2 pc^0 l24 pc^post l21 (and (and (and (and (and (and (and (and (and (and (and (and (and (<= (+ 0 ir4^0) (+ 1 l6^0)) (= __const_10^0 __const_10^post)) (= __const_20^0 __const_20^post)) (= a8^0 a8^post)) (= flag10^0 flag10^post)) (= flag211^0 flag211^post)) (= i3^0 i3^post)) (= ir4^0 ir4^post)) (= j5^0 j5^post)) (= k1^0 k1^post)) (= l6^0 l6^post)) (= mid7^0 mid7^post)) (= n2^0 n2^post)) (= temp9^0 temp9^post)))
    (cfg_trans2 pc^0 l7 pc^post l22 (and (and (and (and (and (and (and (and (and (and (and (and (and (<= 1 (+ 0 flag10^0)) (= __const_10^0 __const_10^post)) (= __const_20^0 __const_20^post)) (= a8^0 a8^post)) (= flag10^0 flag10^post)) (= flag211^0 flag211^post)) (= i3^0 i3^post)) (= ir4^0 ir4^post)) (= j5^0 j5^post)) (= k1^0 k1^post)) (= l6^0 l6^post)) (= mid7^0 mid7^post)) (= n2^0 n2^post)) (= temp9^0 temp9^post)))
    (cfg_trans2 pc^0 l7 pc^post l22 (and (and (and (and (and (and (and (and (and (and (and (and (and (<= (+ 1 flag10^0) 0) (= __const_10^0 __const_10^post)) (= __const_20^0 __const_20^post)) (= a8^0 a8^post)) (= flag10^0 flag10^post)) (= flag211^0 flag211^post)) (= i3^0 i3^post)) (= ir4^0 ir4^post)) (= j5^0 j5^post)) (= k1^0 k1^post)) (= l6^0 l6^post)) (= mid7^0 mid7^post)) (= n2^0 n2^post)) (= temp9^0 temp9^post)))
    (cfg_trans2 pc^0 l7 pc^post l24 (and (and (and (and (and (and (and (and (and (and (and (and (and (and (<= (+ 0 flag10^0) 0) (<= 0 (+ 0 flag10^0))) (= __const_10^0 __const_10^post)) (= __const_20^0 __const_20^post)) (= a8^0 a8^post)) (= flag10^0 flag10^post)) (= flag211^0 flag211^post)) (= i3^0 i3^post)) (= ir4^0 ir4^post)) (= j5^0 j5^post)) (= k1^0 k1^post)) (= l6^0 l6^post)) (= mid7^0 mid7^post)) (= n2^0 n2^post)) (= temp9^0 temp9^post)))
    (cfg_trans2 pc^0 l25 pc^post l1 (and (and (and (and (and (and (and (and (and (and (and (and (= k1^post (+ 0 __const_10^0)) (= n2^post (+ 0 __const_20^0))) (= l6^post 1)) (= ir4^post (+ 0 n2^post))) (= flag211^post 0)) (= flag10^post (+ 0 flag211^post))) (= __const_10^0 __const_10^post)) (= __const_20^0 __const_20^post)) (= a8^0 a8^post)) (= i3^0 i3^post)) (= j5^0 j5^post)) (= mid7^0 mid7^post)) (= temp9^0 temp9^post)))
    (cfg_trans2 pc^0 l26 pc^post l25 (and (and (and (and (and (and (and (and (and (and (and (and (= __const_10^0 __const_10^post) (= __const_20^0 __const_20^post)) (= a8^0 a8^post)) (= flag10^0 flag10^post)) (= flag211^0 flag211^post)) (= i3^0 i3^post)) (= ir4^0 ir4^post)) (= j5^0 j5^post)) (= k1^0 k1^post)) (= l6^0 l6^post)) (= mid7^0 mid7^post)) (= n2^0 n2^post)) (= temp9^0 temp9^post)))
  )
)
